SCIP Status        : solving was interrupted [time limit reached]
Total Time         :    3600.01
  solving          :    3600.00
  presolving       :       0.46 (included in solving)
  reading          :       0.01
  copying          :       0.85 (76 #copies) (minimal 0.00, maximal 0.02, average 0.01)
Original Problem   :
  Problem name     : bbbenchmark/pw09_100.1.cut
  Variables        : 101 (100 binary, 0 integer, 0 implicit integer, 1 continuous)
  Constraints      : 1 initial, 1 maximal
  Objective        : minimize, 1 non-zeros (abs.min = 1, abs.max = 1)
Presolved Problem  :
  Problem name     : t_bbbenchmark/pw09_100.1.cut
  Variables        : 1290 (100 binary, 0 integer, 1140 implicit integer, 50 continuous)
  Constraints      : 1288 initial, 3107 maximal
  Objective        : minimize, 1 non-zeros (abs.min = 1, abs.max = 1)
  Nonzeros         : 11585 constraint, 202 clique table
Presolvers         :   ExecTime  SetupTime  Calls  FixedVars   AggrVars   ChgTypes  ChgBounds   AddHoles    DelCons    AddCons   ChgSides   ChgCoefs
  boundshift       :       0.00       0.00      0          0          0          0          0          0          0          0          0          0
  convertinttobin  :       0.00       0.00      0          0          0          0          0          0          0          0          0          0
  domcol           :       0.00       0.00      1          0          0          0          0          0          0          0          0          0
  dualagg          :       0.00       0.00      0          0          0          0          0          0          0          0          0          0
  dualcomp         :       0.00       0.00      1          0          0          0          0          0          0          0          0          0
  dualinfer        :       0.00       0.00      0          0          0          0          0          0          0          0          0          0
  dualsparsify     :       0.00       0.00      1          0          0          0          0          0          0          0          0          0
  gateextraction   :       0.00       0.00      0          0          0          0          0          0          0          0          0          0
  implics          :       0.00       0.00      2          0          0          0          0          0          0          0          0          0
  inttobinary      :       0.00       0.00      0          0          0          0          0          0          0          0          0          0
  qpkktref         :       0.00       0.00      0          0          0          0          0          0          0          0          0          0
  redvub           :       0.00       0.00      0          0          0          0          0          0          0          0          0          0
  sparsify         :       0.00       0.00      1          0          0          0          0          0          0          0          0          0
  stuffing         :       0.00       0.00      0          0          0          0          0          0          0          0          0          0
  trivial          :       0.00       0.00      4          0          0          0          0          0          0          0          0          0
  tworowbnd        :       0.00       0.00      0          0          0          0          0          0          0          0          0          0
  dualfix          :       0.00       0.00      4          0          0          0          0          0          0          0          0          0
  genvbounds       :       0.00       0.00      0          0          0          0          0          0          0          0          0          0
  probing          :       0.23       0.00      1          0          0          0          0          0          0          0          0          0
  pseudoobj        :       0.00       0.00      1          0          0          0          1          0          0          0          0          0
  symmetry         :       0.00       0.00      0          0          0          0          0          0          0          0          0          0
  vbounds          :       0.00       0.00      1          0          0          0          0          0          0          0          0          0
  varbound         :       0.00       0.00      2          0          0          0          0          0          0          0          0          0
  and              :       0.01       0.00      2          0          0          0          0          0          0          0          0          0
  linear           :       0.00       0.00      2          0          0          0          0          0          0          0          0          0
  logicor          :       0.00       0.00      0          0          0          0          0          0          0          0          0          0
  bounddisjunction :       0.00       0.00      0          0          0          0          0          0          0          0          0          0
  nonlinear        :       0.21       0.00      5          0          0          0          1          0          0       1287          0          0
  benders          :       0.00       0.00      0          0          0          0          0          0          0          0          0          0
  components       :       0.00       0.00      1          0          0          0          0          0          0          0          0          0
  root node        :          -          -      -          0          -          -          7          -          -          -          -          -
Constraints        :     Number  MaxNumber  #Separate #Propagate    #EnfoLP    #EnfoRelax  #EnfoPS    #Check   #ResProp    Cutoffs    DomReds       Cuts    Applied      Conss   Children
  benderslp        :          0          0          0          0     393574          0          0      23892          0          0          0          0          0          0          0
  integral         :          0          0          0          0     393574          0          0      23892          0          0          3          0          0          0     787142
  varbound         :         49         49         69    1715685          0          0          0       4175        151          0     205824          0          0          0          0
  and              :       1140       1140     430743    1729723          0          0          0       3526     199608          1    1019391       2648       2357          0          0
  linear           :         99+       130         69    1729974          0          0          0       3524      31811        522    6485382          0          0          0          0
  logicor          :          0+      1061          0     144752          0          0          0          0         13        590          3          0          0          0          0
  bounddisjunction :          0+       755          0     176139          0          0          0          0          9        136          1          0          0          0          0
  benders          :          0          0          0          0          0          0          0        206          0          0          0          0          0          0          0
  countsols        :          0          0          0          0          0          0          0        206          0          0          0          0          0          0          0
  components       :          0          0          0          0          0          0          0          0          0          0          0          0          0          0          0
Constraint Timings :  TotalTime  SetupTime   Separate  Propagate     EnfoLP     EnfoPS     EnfoRelax   Check    ResProp    SB-Prop
  benderslp        :       0.42       0.00       0.00       0.00       0.40       0.00       0.00       0.02       0.00       0.00
  integral         :      78.21       0.00       0.00       0.00      77.89       0.00       0.00       0.32       0.00       0.00
  varbound         :       3.92       0.00       0.00       3.83       0.00       0.00       0.00       0.09       0.00       0.00
  and              :     122.14       0.00      92.03      28.88       0.00       0.00       0.00       0.98       0.20       0.05
  linear           :      39.65       0.00       0.06      39.45       0.00       0.00       0.00       0.03       0.09       0.02
  logicor          :       2.23       0.00       0.00       2.23       0.00       0.00       0.00       0.00       0.00       0.00
  bounddisjunction :       3.70       0.00       0.00       3.70       0.00       0.00       0.00       0.00       0.00       0.00
  benders          :       0.00       0.00       0.00       0.00       0.00       0.00       0.00       0.00       0.00       0.00
  countsols        :       0.00       0.00       0.00       0.00       0.00       0.00       0.00       0.00       0.00       0.00
  components       :       0.41       0.00       0.00       0.41       0.00       0.00       0.00       0.00       0.00       0.00
Propagators        : #Propagate   #ResProp    Cutoffs    DomReds
  dualfix          :          2          0          0          0
  genvbounds       :          0          0          0          0
  nlobbt           :          0          0          0          0
  obbt             :          0          0          0          0
  probing          :          0          0          0          0
  pseudoobj        :    1624190         15          0       1255
  redcost          :     852584          0          0     235114
  rootredcost      :          9          0          0          0
  symmetry         :          0          0          0          0
  vbounds          :     320530          0          0          0
Propagator Timings :  TotalTime  SetupTime   Presolve  Propagate    ResProp    SB-Prop
  dualfix          :       0.00       0.00       0.00       0.00       0.00       0.00
  genvbounds       :       1.32       0.00       0.00       1.32       0.00       0.00
  nlobbt           :       0.00       0.00       0.00       0.00       0.00       0.00
  obbt             :       0.00       0.00       0.00       0.00       0.00       0.00
  probing          :       0.23       0.00       0.23       0.00       0.00       0.00
  pseudoobj        :       2.62       0.00       0.00       2.62       0.00       0.00
  redcost          :      32.36       0.00       0.00      32.36       0.00       0.00
  rootredcost      :       1.48       0.00       0.00       1.48       0.00       0.00
  symmetry         :       0.81       0.00       0.00       0.80       0.00       0.01
  vbounds          :       1.37       0.00       0.00       1.37       0.00       0.00
Conflict Analysis  :       Time      Calls    Success    DomReds  Conflicts   Literals    Reconvs ReconvLits   Dualrays   Nonzeros   LP Iters   (pool size: [10000,10000])
  propagation      :       0.01        736        342          -        489       77.8          0        0.0          -          -          -
  infeasible LP    :       0.64        464        464          -      14160      138.9          0        0.0       1453      126.0          0
  bound exceed. LP :      24.31       6861       6581          -      71308      105.2          1        6.0          0        0.0      97474
  strong branching :       0.00          0          0          -          0        0.0          0        0.0          -          -          0
  pseudo solution  :       0.00          0          0          -          0        0.0          0        0.0          -          -          -
  applied globally :       0.47          -          -          0      17821       94.1          -          -       1453          -          -
  applied locally  :          -          -          -          0          0        0.0          -          -          0          -          -
Separators         :   ExecTime  SetupTime      Calls  RootCalls    Cutoffs    DomReds  FoundCuts ViaPoolAdd  DirectAdd    Applied ViaPoolApp  DirectApp      Conss
  cut pool         :       4.75          -      77955         95          -          -      31627     769336          -          -          -          -          -    (maximal pool size:       1224)
  aggregation      :     183.92       0.00       5023         69          0          0       4691       5279          0       2610       2610          0          0
  > cmir           :          -          -          -          -          -          -          -       5193          0       2580       2580          0          -
  > flowcover      :          -          -          -          -          -          -          -         86          0         30         30          0          -
  > knapsackcover  :          -          -          -          -          -          -          -          0          0          0          0          0          -
  cgmip            :       0.00       0.00          0          0          0          0          0          0          0          0          0          0          0
  clique           :       0.01       0.00         69         69          0          0          0          0          0          0          0          0          0
  closecuts        :       0.00       0.00          0          0          0          0          0          0          0          0          0          0          0
  convexproj       :       0.00       0.00          0          0          0          0          0          0          0          0          0          0          0
  disjunctive      :       0.00       0.00          0          0          0          0          0          0          0          0          0          0          0
  eccuts           :       0.00       0.00          0          0          0          0          0          0          0          0          0          0          0
  gauge            :       0.00       0.00          0          0          0          0          0          0          0          0          0          0          0
  gomory           :       0.00       0.00          0          0          0          0          0          0          0          0          0          0          0
  > gomorymi       :          -          -          -          -          -          -          -          0          0          0          0          0          -
  > strongcg       :          -          -          -          -          -          -          -          0          0          0          0          0          -
  impliedbounds    :       0.45       0.00       5023         69          0          0          0          0          0          0          0          0          0
  interlattice     :       0.00       0.00          0          0          0          0          0          0          0          0          0          0          0
  interminor       :       0.00       0.00          0          0          0          0          0          0          0          0          0          0          0
  intersub         :       1.06       0.00         40         40          0          0         40          0         40         40          0         40          0
  intobj           :       0.00       0.00          0          0          0          0          0          0          0          0          0          0          0
  mcf              :       0.00       0.00          1          1          0          0          0          0          0          0          0          0          0
  minor            :       0.00       0.00          0          0          0          0          0          0          0          0          0          0          0
  mixing           :       0.03       0.00       5023         69          0          0          0          0          0          0          0          0          0
  oddcycle         :       0.00       0.00          0          0          0          0          0          0          0          0          0          0          0
  rapidlearning    :       0.04       0.00          0          0          0          0          0          0          0          0          0          0          0
  rlt              :       0.00       0.00         10         10          0          0          0          0          0          0          0          0          0
  zerohalf         :      20.47       0.00       4250         20          0          0      26937     764057          1     113665     113665          0          0
Cutselectors       :   ExecTime  SetupTime      Calls  RootCalls   Selected     Forced   Filtered  RootSelec   RootForc   RootFilt 
  hybrid           :       0.64       0.00      17906         68     118672          0     653353        174          0          5
Pricers            :   ExecTime  SetupTime      Calls       Vars
  problem variables:       0.00          -          0          0
Branching Rules    :   ExecTime  SetupTime   BranchLP  BranchExt   BranchPS    Cutoffs    DomReds       Cuts      Conss   Children
  allfullstrong    :       0.00       0.00          0          0          0          0          0          0          0          0
  cloud            :       0.00       0.00          0          0          0          0          0          0          0          0
  distribution     :       0.00       0.00          0          0          0          0          0          0          0          0
  fullstrong       :       0.00       0.00          0          0          0          0          0          0          0          0
  inference        :       0.00       0.00          0          0          0          0          0          0          0          0
  leastinf         :       0.00       0.00          0          0          0          0          0          0          0          0
  lookahead        :       0.00       0.00          0          0          0          0          0          0          0          0
  mostinf          :       0.00       0.00          0          0          0          0          0          0          0          0
  multaggr         :       0.00       0.00          0          0          0          0          0          0          0          0
  nodereopt        :       0.00       0.00          0          0          0          0          0          0          0          0
  pscost           :       0.00       0.00          0          0          0          0          0          0          0          0
  random           :       0.00       0.00          0          0          0          0          0          0          0          0
  relpscost        :      76.64       0.00     393574          0          0          0          3          0          0     787142
  vanillafullstrong:       0.00       0.00          0          0          0          0          0          0          0          0
Primal Heuristics  :   ExecTime  SetupTime      Calls      Found       Best
  LP solutions     :       0.00          -          -          0          0
  relax solutions  :       0.00          -          -          0          0
  pseudo solutions :       0.00          -          -          0          0
  strong branching :       0.01          -          -          0          0
  actconsdiving    :       0.00       0.00          0          0          0
  adaptivediving   :       2.78       0.00         44          0          0
  alns             :       1.49       0.00         20          0          0
  bound            :       0.00       0.00          0          0          0
  clique           :       0.02       0.00          1          0          0
  coefdiving       :       0.00       0.00          0          0          0
  completesol      :       0.00       0.00          0          0          0
  conflictdiving   :     133.81       0.00       1782          0          0
  crossover        :      20.57       0.00         16          0          0
  dins             :       0.00       0.00          0          0          0
  distributiondivin:      76.86       0.00        602          0          0
  dps              :       0.00       0.00          0          0          0
  dualval          :       0.00       0.00          0          0          0
  farkasdiving     :       0.06       0.00          0          0          0
  feaspump         :       0.17       0.00          2          1          0
  fixandinfer      :       0.00       0.00          0          0          0
  fracdiving       :      44.60       0.00        468          0          0
  gins             :       0.40       0.00          0          0          0
  guideddiving     :      47.04       0.00        479          3          3
  indicator        :       0.40       0.00          0          0          0
  indicatordiving  :       0.00       0.00          0          0          0
  intdiving        :       0.00       0.00          0          0          0
  intshifting      :       0.66       0.00        164          0          0
  linesearchdiving :      43.49       0.00        817          3          3
  localbranching   :       0.00       0.00          0          0          0
  locks            :       0.01       0.00          1          0          0
  lpface           :       0.39       0.00          0          0          0
  mpec             :      71.55       0.00         11          0          0
  multistart       :       0.00       0.00          0          0          0
  mutation         :       0.00       0.00          0          0          0
  nlpdiving        :      13.38       0.00          1          0          0
  objpscostdiving  :      61.49       0.00        395        122          1
  octane           :       0.00       0.00          0          0          0
  ofins            :       0.35       0.00          0          0          0
  oneopt           :       0.47       0.00         11          0          0
  padm             :       0.00       0.00          0          0          0
  proximity        :       0.00       0.00          0          0          0
  pscostdiving     :      46.39       0.00        324          1          1
  randrounding     :       2.57       0.00      23717          0          0
  rens             :       0.00       0.00          0          0          0
  reoptsols        :       0.00       0.00          0          0          0
  repair           :       0.00       0.00          0          0          0
  rins             :       7.03       0.00         39          0          0
  rootsoldiving    :      38.03       0.00        558         69          0
  rounding         :       2.29       0.00       8985          0          0
  shiftandpropagate:       0.00       0.00          0          0          0
  shifting         :      35.99       0.00      11778          1          1
  simplerounding   :       0.41       0.00          0          0          0
  subnlp           :     349.56       0.00          0          0          0
  trivial          :       0.01       0.00          2          2          2
  trivialnegation  :       0.00       0.00          0          0          0
  trustregion      :       0.00       0.00          0          0          0
  trysol           :       0.62       0.00          0          0          0
  twoopt           :       0.00       0.00          0          0          0
  undercover       :       4.86       0.00          1          1          1
  vbounds          :       0.00       0.00          0          0          0
  veclendiving     :      44.67       0.00        852          0          0
  zeroobj          :       0.00       0.00          0          0          0
  zirounding       :       0.64       0.00       1000          0          0
  other solutions  :          -          -          -          0          -
Diving (single)    :      Calls      Nodes   LP Iters Backtracks  Conflicts   MinDepth   MaxDepth   AvgDepth  RoundSols  NLeafSols  MinSolDpt  MaxSolDpt  AvgSolDpt
  actconsdiving    :          0          -          -          -          -          -          -          -          -          -          -          -          -
  coefdiving       :          0          -          -          -          -          -          -          -          -          -          -          -          -
  conflictdiving   :       1782      55905    1091275       1178      17185         66         92       81.3          0          -          -          -          -
  distributiondivin:        602      21558     368597        679       9370         61         95       76.5          0          -          -          -          -
  farkasdiving     :          0          -          -          -          -          -          -          -          -          -          -          -          -
  fracdiving       :        468      38519     369977        297       2918         68        432      120.0          0          -          -          -          -
  guideddiving     :        479      35743     392261        108       4660         67        284      113.5          0          3        110        128      118.0
  indicatordiving  :          0          -          -          -          -          -          -          -          -          -          -          -          -
  linesearchdiving :        817      36039     380587        189      14339         65        115       89.5          0          3         87         95       90.7
  pscostdiving     :        324      13964     385997        335       6135         68         92       80.8          0          1         86         86       86.0
  veclendiving     :        852      37943     366448        537      32003         67         98       83.9          0          -          -          -          -
Diving (adaptive)  :      Calls      Nodes   LP Iters Backtracks  Conflicts   MinDepth   MaxDepth   AvgDepth  RoundSols  NLeafSols  MinSolDpt  MaxSolDpt  AvgSolDpt
  actconsdiving    :          3        144       1570          4         50         73         75       74.3          0          -          -          -          -
  coefdiving       :         17        707       4712          7        401         74         96       84.4          0          -          -          -          -
  conflictdiving   :          0          -          -          -          -          -          -          -          -          -          -          -          -
  distributiondivin:          0          -          -          -          -          -          -          -          -          -          -          -          -
  farkasdiving     :          0          -          -          -          -          -          -          -          -          -          -          -          -
  fracdiving       :          0          -          -          -          -          -          -          -          -          -          -          -          -
  guideddiving     :          9        578       6145          2         58         82        143      103.1          0          -          -          -          -
  indicatordiving  :          0          -          -          -          -          -          -          -          -          -          -          -          -
  linesearchdiving :          8        395       3415          2        148         80        103       90.1          0          -          -          -          -
  pscostdiving     :          4        123       2469          4         57         77         80       78.5          0          -          -          -          -
  veclendiving     :          3         62        173          2         39         87         93       89.3          0          -          -          -          -
Neighborhoods      :      Calls  SetupTime  SolveTime SolveNodes       Sols       Best       Exp3  EpsGreedy        UCB TgtFixRate  Opt  Inf Node Stal  Sol  Usr Othr Actv
  rens             :          4       0.07       0.19        130          0          0    0.00000   -1.00000    0.46441      0.822    0    2    0    2    0    0    0    1
  rins             :          2       0.02       0.13        125          0          0    0.00000   -1.00000    0.44885      0.850    0    1    0    1    0    0    0    1
  mutation         :          2       0.02       0.09         91          0          0    0.00000   -1.00000    0.46380      0.850    0    1    0    1    0    0    0    1
  localbranching   :          2       0.02       0.07        121          0          0    0.00000   -1.00000    0.44885      0.850    0    1    0    1    0    0    0    1
  crossover        :          2       0.03       0.14        115          0          0    0.00000   -1.00000    0.44985      0.850    0    1    0    1    0    0    0    1
  proximity        :          3       0.07       0.19        142          0          0    0.00000   -1.00000    0.46402      0.900    0    1    0    2    0    0    0    1
  zeroobjective    :          2       0.03       0.05         72          0          0    0.00000   -1.00000    0.46785      0.850    0    1    0    1    0    0    0    1
  dins             :          3       0.07       0.13        139          0          0    0.00000   -1.00000    0.46496      0.900    0    1    0    2    0    0    0    1
  trustregion      :          0       0.00       0.00          0          0          0    0.00000   -1.00000    1.00000      0.900    0    0    0    0    0    0    0    0
Expressions        :   #IntEval  IntEvalTi   #RevProp  RevPropTi    DomReds    Cutoffs  #Estimate  EstimTime  Branching  #Simplify SimplifyTi Simplified
  pow              :          0       0.00          0       0.00          0          0          0       0.00          0          0       0.00          0
  prod             :      17820       0.01          0       0.00          0          0          0       0.00          0      10050       0.00          0
  sum              :          8       0.01          2       0.00          0          0          0       0.00          0          3       0.03          2
  var              :       4679       0.01          0       0.00          0          0          0       0.00          0      21592       0.00          0
  varidx           :          0       0.00          0       0.00          0          0          0       0.00          0          0       0.00          0
LP                 :       Time      Calls Iterations  Iter/call   Iter/sec  Time-0-It Calls-0-It    ItLimit
  primal LP        :     149.58      29480          0       0.00       0.00     149.48      29480
  dual LP          :    1419.74     588230    7223362      13.36    5087.81      16.54      47535
  lex dual LP      :       0.00          0          0       0.00          -
  barrier LP       :       0.00          0          0       0.00          -       0.00          0
  resolve instable :       0.00          0          0       0.00          -
  diving/probing LP:     417.78      38617    3875090     100.35    9275.43
  strong branching :       8.29        491      46888      95.49    5655.97          -          -          0
    (at root node) :          -         19       4397     231.42          -
  conflict analysis:      12.82      11140      97474       8.75    7603.28
NLP relaxation     :
  solve time       :      13.27 (9 calls)
  convexity        :  nonconvex (148 linear rows, 0 convex ineq., 0 nonconvex ineq., 1140 nonlinear eq. or two-sided ineq.)
NLP Solvers        :  #Problems  ProblemTi    #Solves  SolveTime      #Iter  Time/Iter      #Okay #TimeLimit #IterLimit #LObjLimit #Interrupt  #NumError #EvalError  #OutOfMem #LicenseEr #OtherTerm   #GlobOpt    #LocOpt  #Feasible #LocInfeas #GlobInfea #Unbounded   #Unknown
  ipopt            :         12      15.30         47      84.67       1777       0.05         45          0          2          0          0          0          0          0          0          0          0         28          0         17          0          0          2
B&B Tree           :
  number of runs   :          1
  nodes            :     522795 (393571 internal, 129224 leaves)
  feasible leaves  :          0
  infeas. leaves   :          7
  objective leaves :     129216
  nodes (total)    :     522795 (393571 internal, 129224 leaves)
  nodes left       :     257667
  max depth        :         85
  max depth (total):         85
  backtracks       :      90543 (17.3%)
  early backtracks :          0 (0.0%)
  nodes exc. ref.  :          0 (0.0%)
  delayed cutoffs  :          3
  repropagations   :         33 (211 domain reductions, 0 cutoffs)
  avg switch length:       7.19
  switching time   :     262.57
Estim. Tree Size   :    1058952
Estimation Tree    : 787143 nodes (529476 visited, 393571 internal, 135905 leaves, 257667 open), weight: 0.0000 completed 0.0617
Estimations        :      estim      value      trend resolution     smooth
  wbe              :         in          -          -          -          -
  tree-profile     :         -1          -          -          -          -
  gap              :   15044285    0.59756    0.00001        256   15610398
  tree-weight      :    1058952    0.00000    0.00000        256    1055382
  leaf-frequency   :    1058952    0.25668   -0.00000        256    1067000
  ssg              :   20075503    0.90262   -0.00002        256   20543722
  open-nodes       :    1058952 257667.00000  303.17161        256    1055382
Root Node          :
  First LP value   : -5.44713804713805e+00
  First LP Iters   :       2193 (11542.11 Iter/sec)
  First LP Time    :       0.19
  Final Dual Bound : -5.32814315088197e+00
  Final Root Iters :       4503
  Root LP Estimate : -2.30378482655183e+00
Solution           :
  Solutions found  :        203 (12 improvements)
  First Solution   : +1.00000000000000e+05   (in run 1, after 0 nodes, 0.01 seconds, depth 0, found by <trivial>)
  Gap First Sol.   :   infinite
  Gap Last Sol.    :      67.54 %
  Primal Bound     : -2.94074074074074e+00   (in run 1, after 487589 nodes, 3364.66 seconds, depth 110, found by <guideddiving>)
  Dual Bound       : -4.92121379597682e+00
  Gap              :      67.35 %
Integrals          :      Total       Avg%
  primal-dual      :  151217.74      42.00
  primal-ref       :          -          - (not evaluated)
  dual-ref         :          -          - (not evaluated)
